9
0 59 62 71 38 49 40 51 62
59 0 48 48 41 78 43 53 20
62 48 0 62 47 50 39 34 67
71 48 62 0 23 26 62 43 62
38 41 47 23 0 49 68 16 71
49 78 50 26 49 0 91 82 49
40 43 39 62 68 91 0 46 47
51 53 34 43 16 82 46 0 66
62 20 67 62 71 49 47 66 0
